
******************************************************************************
This program contains Ipopt, a library for large-scale nonlinear optimization.
 Ipopt is released as open source code under the Eclipse Public License (EPL).
         For more information visit https://github.com/coin-or/Ipopt
******************************************************************************

This is Ipopt version 3.14.19, running with linear solver MUMPS 5.8.1.

Number of nonzeros in equality constraint Jacobian...:     4389
Number of nonzeros in inequality constraint Jacobian.:        0
Number of nonzeros in Lagrangian Hessian.............:     1050

Total number of variables............................:     1287
                     variables with only lower bounds:        0
                variables with lower and upper bounds:      457
                     variables with only upper bounds:        0
Total number of equality constraints.................:     1274
Total number of inequality constraints...............:        0
        inequality constraints with only lower bounds:        0
   inequality constraints with lower and upper bounds:        0
        inequality constraints with only upper bounds:        0

iter    objective    inf_pr   inf_du lg(mu)  ||d||  lg(rg) alpha_du alpha_pr  ls
   0  9.8479018e+00 9.90e+01 1.91e-04  -1.0 0.00e+00    -  0.00e+00 0.00e+00   0
   1  1.0192875e+01 1.25e+02 2.26e+01  -1.0 9.86e+01    -  4.11e-02 1.00e+00h  1
   2  1.0038464e+01 1.84e+01 6.89e-02  -1.0 3.00e+01    -  9.35e-01 1.00e+00h  1
   3  9.9609481e+00 7.86e+00 9.11e-02  -1.0 4.01e+00    -  6.61e-01 7.53e-01h  1
   4  1.0362334e+01 2.42e+01 3.27e-01  -1.0 8.53e+00    -  9.91e-01 8.57e-01h  1
   5  1.0399761e+01 3.80e+00 1.55e-03  -1.0 5.41e+00    -  1.00e+00 1.00e+00h  1
   6  1.0381821e+01 8.28e-02 3.51e-05  -1.0 6.48e-01    -  1.00e+00 1.00e+00h  1
   7  1.0086094e+01 1.14e+00 8.77e-01  -2.5 2.78e+00    -  5.00e-01 1.00e+00h  1
   8  9.8809305e+00 4.82e+00 3.36e-01  -2.5 2.98e+00    -  7.40e-01 1.00e+00h  1
   9  9.8558321e+00 2.09e+02 2.81e-03  -2.5 3.95e+02    -  1.00e+00 1.00e+00h  1
iter    objective    inf_pr   inf_du lg(mu)  ||d||  lg(rg) alpha_du alpha_pr  ls
  10  9.8542670e+00 4.10e+01 3.17e-04  -2.5 4.75e+02    -  1.00e+00 1.00e+00h  1
  11  9.8545739e+00 2.07e+00 5.97e-06  -2.5 6.45e+01    -  1.00e+00 1.00e+00h  1
  12  9.8545811e+00 2.76e-03 1.87e-08  -2.5 3.64e+00    -  1.00e+00 1.00e+00h  1
  13  9.8528717e+00 1.25e+00 4.76e-04  -3.8 4.38e+00    -  1.00e+00 1.00e+00h  1
  14  9.8517148e+00 1.08e-03 8.26e-04  -3.8 1.50e+00    -  8.68e-01 1.00e+00h  1
  15  9.8480889e+00 4.47e-04 6.38e-04  -5.7 1.65e+00    -  7.49e-01 1.00e+00h  1
  16  9.8479306e+00 5.33e-05 7.58e-05  -5.7 1.12e-01    -  9.79e-01 8.83e-01h  1
  17  9.8479235e+00 3.69e-05 5.66e-04  -5.7 9.03e-02    -  1.00e+00 3.09e-01f  2
  18  9.8479120e+00 6.59e-09 7.32e-09  -5.7 2.43e-02    -  1.00e+00 1.00e+00h  1
  19  9.8479008e+00 8.59e-09 2.84e-03  -8.6 1.42e-02    -  9.77e-01 3.73e-01h  1
iter    objective    inf_pr   inf_du lg(mu)  ||d||  lg(rg) alpha_du alpha_pr  ls
  20  9.8479008e+00 3.75e-09 3.98e-03  -8.6 4.89e-05    -  1.00e+00 5.64e-01f  1
  21  9.8479008e+00 2.53e-11 2.21e-14  -8.6 1.31e-05    -  1.00e+00 1.00e+00f  1

Number of Iterations....: 21

                                   (scaled)                 (unscaled)
Objective...............:   9.8479007832623040e+00    9.8479007832623040e+00
Dual infeasibility......:   2.2129433702167134e-14    2.2129433702167134e-14
Constraint violation....:   2.5297985928325514e-11    2.5297985928325514e-11
Variable bound violation:   0.0000000000000000e+00    0.0000000000000000e+00
Complementarity.........:   2.5087668003229992e-09    2.5087668003229992e-09
Overall NLP error.......:   2.5087668003229992e-09    2.5087668003229992e-09


Number of objective function evaluations             = 23
Number of objective gradient evaluations             = 22
Number of equality constraint evaluations            = 23
Number of inequality constraint evaluations          = 0
Number of equality constraint Jacobian evaluations   = 22
Number of inequality constraint Jacobian evaluations = 0
Number of Lagrangian Hessian evaluations             = 21
Total seconds in IPOPT                               = 0.099

EXIT: Optimal Solution Found.
